NAME : mar10_100_1
COMMENT : Data set with 10 points
COMMENT : CIn-UFPE
COMMENT : Contributed by Marcelo Lacerda
TYPE : TSP
DIMENSION : 10
EDGE_WEIGHT_TYPE : EUC_2D
NODE_COORD_SECTION
1 31 73
2 99 86
3 36 16
4 59 41
5 58 24
6 80 26
7 84 96
8 29 70
9 0 37
10 5 95
EOF
